\ LP format - for model browsing. Use MPS format to capture full model detail.
Minimize
  8600 y2 + 8600 y4 + 7500 x2 + 21500 x4 + 7500 x2 + 21500 x4 + 7500 x2
   + 21500 x4 + 7500 x2 + 21500 x4 + 7500 x2 + 21500 x4 + 7500 x2
   + 21500 x4 + 7500 x2 + 21500 x4 + 7500 x2 + 21500 x4 + 27500 x3
   + 51500 x3 + 27500 x3 + 51500 x3 + 27500 x3 + 51500 x3 + 27500 x3
   + 51500 x3 + 27500 x3 + 51500 x3 + 27500 x3 + 51500 x3 + 27500 x3
   + 51500 x3 + 27500 x3 + 51500 x3 + 11000 y3 + 20600 y3
Subject To
 c0: 14 y2 + 14 x2 + 14 x2 + 14 x2 + 14 x2 + 14 x2 + 14 x2 + 14 x2 + 14 x2
   >= 7
 c1: 14 x3 + 14 x3 + 14 x3 + 14 x3 + 14 x3 + 14 x3 + 14 x3 + 14 x3 + 14 y3
   >= -15
 c2: 14 x3 + 14 x3 + 14 x3 + 14 x3 + 14 x3 + 14 x3 + 14 x3 + 14 x3 + 14 y3
   >= -35
 c3: 14 y4 + 14 x4 + 14 x4 + 14 x4 + 14 x4 + 14 x4 + 14 x4 + 14 x4 + 14 x4
   >= -2
 c4: 1.55 x2 + 1.11 x4 <= 12
 c5: 1.55 x2 + 1.11 x4 <= 12
 c6: 1.55 x2 + 1.11 x4 <= 7.35
 c7: 1.55 x2 + 1.11 x4 <= 12
 c8: 1.55 x2 + 1.11 x4 <= 12
 c9: 1.55 x2 + 1.11 x4 <= 12
 c10: 1.55 x2 + 1.11 x4 <= 12
 c11: 1.55 x2 + 1.11 x4 <= 12
 c12: 2 x3 + 4 x3 <= 12
 c13: 2 x3 + 4 x3 <= 12
 c14: 2 x3 + 4 x3 <= 12
 c15: 2 x3 + 4 x3 <= 12
 c16: 2 x3 + 4 x3 <= 12
 c17: 2 x3 + 4 x3 <= 12
 c18: 2 x3 + 4 x3 <= 12
 c19: 2 x3 + 4 x3 <= 12
Bounds
Generals
 y2 y4 x2 x4 x2 x4 x2 x4 x2 x4 x2 x4 x2 x4 x2 x4 x2 x4 x3 x3 x3 x3 x3 x3 x3
 x3 x3 x3 x3 x3 x3 x3 x3 x3 y3 y3
End
